words_hard_train/1377.qaiger
aag 88 22 0 1 66
2
4
12
14
18
22
26
40
42
50
62
64
82
84
92
94
116
120
122
144
146
154
177
6 2 4
8 3 5
10 7 9
16 13 15
20 17 18
24 21 23
28 24 27
30 25 26
32 29 31
34 11 32
36 10 33
38 35 37
44 40 42
46 41 43
48 45 47
52 31 51
54 30 50
56 53 55
58 48 57
60 38 59
66 62 65
68 63 64
70 67 69
72 20 22
74 73 25
76 71 75
78 70 74
80 77 79
86 83 84
88 82 85
90 87 89
96 92 94
98 93 95
100 97 99
102 16 19
104 103 21
106 101 105
108 100 104
110 107 109
112 90 111
114 81 112
118 15 116
124 121 122
126 120 123
128 125 127
130 128 13
132 129 12
134 131 133
136 118 134
138 14 117
140 138 135
142 137 141
148 145 146
150 144 147
152 149 151
156 152 155
158 153 154
160 157 159
162 161 54
164 143 163
166 114 164
168 49 56
170 160 55
172 169 171
174 166 172
176 60 174
i0 1 x1[3]
i1 2 y2[5]
i2 1 x2[2]
i3 1 x2[1]
i4 1 x2[3]
i5 1 x2[4]
i6 1 x2[5]
i7 1 x1[4]
i8 2 y2[6]
i9 1 x2[6]
i10 1 x1[2]
i11 2 y2[4]
i12 1 x2[0]
i13 2 y2[0]
i14 1 x1[1]
i15 2 y2[3]
i16 2 y2[1]
i17 1 x1[0]
i18 2 y2[2]
i19 1 x2[7]
i20 1 x1[5]
i21 2 y2[7]
o0 bool[0]
c
simplified
  !=
    xor
      2 y2
      << 2
        1 x1
    subtract
      1 x2
      234
