words_hard_train/1377.qaiger.qdimacs
p cnf 88 199
a 1 6 7 72 9 41 11 73 13 46 20 25 60 31 0
e 2 3 4 5 8 10 12 14 15 16 17 18 19 21 22 23 24 26 27 28 29 30 32 33 34 35 36 37 38 39 40 42 43 44 45 47 48 49 50 51 52 53 54 55 56 57 58 59 61 62 63 64 65 66 67 68 69 70 71 74 75 76 77 78 79 80 81 82 83 84 85 86 87 88 0
-1 -2 3 0
1 -3 0
2 -3 0
1 2 4 0
-1 -4 0
-2 -4 0
3 4 5 0
-3 -5 0
-4 -5 0
6 7 8 0
-6 -8 0
-7 -8 0
8 -9 10 0
-8 -10 0
9 -10 0
10 11 12 0
-10 -12 0
-11 -12 0
-12 13 14 0
12 -14 0
-13 -14 0
12 -13 15 0
-12 -15 0
13 -15 0
14 15 16 0
-14 -16 0
-15 -16 0
5 -16 17 0
-5 -17 0
16 -17 0
-5 16 18 0
5 -18 0
-16 -18 0
17 18 19 0
-17 -19 0
-18 -19 0
-20 -21 22 0
20 -22 0
21 -22 0
20 21 23 0
-20 -23 0
-21 -23 0
22 23 24 0
-22 -24 0
-23 -24 0
15 25 26 0
-15 -26 0
-25 -26 0
-15 -25 27 0
15 -27 0
25 -27 0
26 27 28 0
-26 -28 0
-27 -28 0
-24 28 29 0
24 -29 0
-28 -29 0
-19 29 30 0
19 -30 0
-29 -30 0
-31 32 33 0
31 -33 0
-32 -33 0
31 -32 34 0
-31 -34 0
32 -34 0
33 34 35 0
-33 -35 0
-34 -35 0
-10 -11 36 0
10 -36 0
11 -36 0
36 12 37 0
-36 -37 0
-12 -37 0
35 37 38 0
-35 -38 0
-37 -38 0
-35 -37 39 0
35 -39 0
37 -39 0
38 39 40 0
-38 -40 0
-39 -40 0
41 -42 43 0
-41 -43 0
42 -43 0
-41 42 44 0
41 -44 0
-42 -44 0
43 44 45 0
-43 -45 0
-44 -45 0
-46 -47 48 0
46 -48 0
47 -48 0
46 47 49 0
-46 -49 0
-47 -49 0
48 49 50 0
-48 -50 0
-49 -50 0
-8 9 51 0
8 -51 0
-9 -51 0
51 10 52 0
-51 -52 0
-10 -52 0
50 52 53 0
-50 -53 0
-52 -53 0
-50 -52 54 0
50 -54 0
52 -54 0
53 54 55 0
-53 -55 0
-54 -55 0
-45 55 56 0
45 -56 0
-55 -56 0
40 -56 57 0
-40 -57 0
56 -57 0
7 -58 59 0
-7 -59 0
58 -59 0
60 -61 62 0
-60 -62 0
61 -62 0
-60 61 63 0
60 -63 0
-61 -63 0
62 63 64 0
-62 -64 0
-63 -64 0
-64 6 65 0
64 -65 0
-6 -65 0
64 -6 66 0
-64 -66 0
6 -66 0
65 66 67 0
-65 -67 0
-66 -67 0
-59 -67 68 0
59 -68 0
67 -68 0
-7 58 69 0
7 -69 0
-58 -69 0
-69 67 70 0
69 -70 0
-67 -70 0
68 70 71 0
-68 -71 0
-70 -71 0
72 -73 74 0
-72 -74 0
73 -74 0
-72 73 75 0
72 -75 0
-73 -75 0
74 75 76 0
-74 -76 0
-75 -76 0
-76 77 78 0
76 -78 0
-77 -78 0
76 -77 79 0
-76 -79 0
77 -79 0
78 79 80 0
-78 -80 0
-79 -80 0
80 -27 81 0
-80 -81 0
27 -81 0
71 81 82 0
-71 -82 0
-81 -82 0
-57 -82 83 0
57 -83 0
82 -83 0
24 -28 84 0
-24 -84 0
28 -84 0
-80 27 85 0
80 -85 0
-27 -85 0
84 85 86 0
-84 -86 0
-85 -86 0
-83 -86 87 0
83 -87 0
86 -87 0
-30 -87 88 0
30 -88 0
87 -88 0
-88 0
